language ESSENCE' 1.0

letting jobs = 102
letting horizon = 789
letting resourcesRenew = 2
letting resourcesNonrenew = 2
letting resourceLimits = [24, 18, 664, 595]
letting successors = [[2, 3, 4, 5, 7, 8, 9, 11, 13, 15, 19], [21, 14, 10, 6], [22, 21, 16, 14, 10], [23, 22, 16, 14, 10], [23, 22, 14, 10], [37, 28, 23, 18, 16, 12], [28, 23, 22, 20, 16, 14], [30, 28, 23, 16, 14], [28, 20, 16, 14], [30, 28, 25, 20, 18, 17], [37, 36, 28, 27, 25, 24, 18], [32, 29, 27, 22, 17], [37, 36, 35, 33, 32, 29, 27, 24], [37, 27, 26, 17], [37, 36, 35, 33, 32, 29, 22], [36, 32, 29, 25, 24], [48, 39, 36, 35, 33, 24], [42, 35, 32, 31, 29, 26], [37, 28, 27, 26], [42, 32, 29, 27], [51, 49, 48, 45, 42, 39, 38, 37, 36, 34], [47, 42, 38, 26], [51, 49, 48, 39, 38, 36, 35, 34], [49, 45, 42, 38, 34, 31], [49, 38, 35, 33, 31], [51, 49, 48, 45, 43, 40, 39, 34], [49, 47, 45, 43, 40, 38, 34], [51, 49, 47, 45, 44, 42, 38], [52, 51, 45, 43, 39, 38], [51, 44, 38, 35], [52, 47, 46, 44, 43, 40], [53, 52, 48, 47, 44, 38], [60, 52, 51, 50, 45, 44, 43], [62, 60, 59, 50, 46, 44, 41], [55, 52, 50, 46, 45, 43], [67, 63, 62, 61, 60, 55, 54, 53, 47], [60, 57, 55, 52, 50, 43], [71, 63, 62, 61, 60, 59, 57, 55, 50], [60, 50, 46, 44], [60, 55, 54, 53, 50], [70, 66, 63, 61, 56, 54, 53, 52], [59, 54, 53, 52, 50], [75, 70, 67, 63, 62, 59, 58, 56, 54], [75, 67, 66, 63, 61, 58, 56, 54], [71, 70, 68, 66, 63, 61, 53], [74, 70, 68, 67, 66, 65, 57, 56], [75, 74, 71, 70, 68, 66, 59, 56], [71, 70, 68, 67, 62, 60, 58, 56], [72, 68, 66, 64, 61, 60, 57], [70, 68, 67, 65, 58, 56], [75, 71, 70, 68, 63, 56], [74, 73, 72, 71, 65, 64, 58], [72, 58, 57], [80, 77, 74, 71, 68, 65], [86, 80, 76, 69, 68, 66], [72, 69, 64], [86, 82, 81, 80, 78, 76, 75, 73], [86, 83, 80, 78, 77, 76, 69], [72, 69, 65], [91, 86, 82, 81, 80, 78, 76, 75], [86, 83, 80, 76, 74, 69], [86, 80, 78, 73, 69], [86, 82, 79, 78, 77, 76, 73], [91, 86, 83, 81, 80, 78, 77, 76], [86, 84, 83, 82, 79, 78, 76], [85, 81, 79, 78, 73], [101, 90, 85, 82, 73], [101, 91, 89, 88, 87, 85, 83, 82, 81], [91, 90, 88, 87, 85, 82, 81, 79], [90, 86, 84, 82, 79, 76], [90, 89, 87, 86, 85, 84, 82, 79], [91, 89, 87, 81, 79], [100, 91, 89, 88, 87, 84, 83], [100, 91, 90, 88, 87, 84], [87, 84, 83, 79], [97, 92, 89, 88, 85], [101, 99, 87, 84], [100, 97, 95, 92, 90, 87], [101, 100, 97, 96, 95, 94, 93, 92], [100, 99, 97, 92, 87], [100, 96, 94, 84], [99, 97, 96, 95, 94, 93, 92], [99, 96, 95, 94, 93], [97, 95, 93, 92], [96, 95, 94, 93], [97, 95, 94, 93], [96, 94, 93], [99, 95, 93], [94, 93], [94, 93], [99, 93], [98], [102], [102], [102], [102], [102], [102], [102], [102], [102], []]
letting durations = [[0], [8, 9, 10], [5, 6, 9], [6, 7, 9], [7, 8, 9], [1, 5, 6], [8, 9, 10], [2, 8, 9], [5, 6, 8], [1, 7, 8], [4, 6, 7], [2, 3, 4], [1, 2, 3], [5, 6, 7], [1, 7, 8], [2, 6, 10], [1, 2, 6], [6, 7, 9], [4, 5, 6], [4, 5, 10], [1, 2, 3], [5, 6, 9], [2, 8, 10], [2, 8, 9], [2, 3, 7], [2, 5, 9], [6, 8, 10], [1, 2, 4], [3, 4, 10], [3, 9, 10], [6, 8, 10], [1, 9, 10], [1, 2, 3], [2, 8, 10], [2, 4, 10], [2, 7, 9], [4, 5, 9], [2, 5, 9], [1, 2, 8], [2, 5, 7], [6, 7, 8], [3, 4, 6], [1, 7, 8], [1, 3, 5], [3, 5, 8], [2, 6, 10], [1, 2, 10], [1, 3, 8], [2, 3, 7], [4, 5, 6], [1, 6, 7], [1, 7, 9], [3, 6, 9], [1, 2, 7], [2, 4, 5], [4, 7, 9], [1, 7, 9], [4, 8, 10], [2, 4, 8], [4, 5, 8], [2, 3, 10], [1, 2, 4], [3, 4, 9], [5, 7, 9], [2, 4, 5], [4, 6, 7], [1, 3, 10], [3, 9, 10], [6, 7, 9], [1, 4, 8], [1, 4, 5], [2, 6, 8], [6, 7, 8], [1, 8, 10], [1, 4, 6], [3, 5, 7], [2, 6, 9], [1, 3, 8], [1, 6, 10], [1, 6, 9], [2, 7, 10], [3, 4, 5], [3, 8, 10], [1, 5, 7], [2, 7, 9], [1, 2, 3], [1, 3, 4], [4, 5, 7], [1, 2, 6], [4, 5, 6], [3, 4, 9], [1, 4, 5], [4, 5, 10], [1, 2, 5], [5, 6, 7], [1, 5, 9], [6, 7, 10], [4, 5, 8], [2, 6, 9], [6, 7, 8], [1, 8, 10], [0]]
letting resourceUsage = [[[0, 0, 0, 0]], [[4, 2, 7, 5], [3, 2, 6, 5], [3, 2, 6, 4]], [[4, 4, 8, 6], [3, 2, 6, 6], [3, 2, 4, 6]], [[4, 4, 9, 2], [4, 2, 8, 1], [3, 2, 7, 1]], [[3, 3, 8, 6], [3, 3, 5, 5], [3, 3, 4, 5]], [[4, 5, 4, 9], [3, 5, 3, 9], [2, 5, 3, 9]], [[5, 2, 8, 9], [4, 2, 8, 8], [4, 1, 8, 7]], [[4, 2, 7, 3], [4, 1, 5, 4], [4, 1, 5, 3]], [[4, 3, 7, 3], [3, 2, 7, 3], [2, 1, 6, 3]], [[2, 4, 8, 5], [2, 3, 8, 4], [2, 3, 8, 3]], [[3, 2, 10, 9], [2, 2, 9, 8], [2, 1, 7, 6]], [[2, 2, 7, 4], [2, 2, 6, 3], [2, 2, 4, 3]], [[4, 3, 9, 5], [4, 1, 8, 4], [3, 1, 8, 2]], [[2, 4, 9, 4], [1, 3, 9, 2], [1, 3, 9, 1]], [[4, 4, 9, 9], [4, 3, 5, 8], [4, 3, 5, 4]], [[3, 2, 7, 10], [3, 2, 4, 8], [2, 2, 3, 7]], [[3, 5, 8, 9], [2, 4, 3, 8], [1, 4, 1, 6]], [[4, 2, 5, 6], [3, 1, 5, 3], [3, 1, 5, 2]], [[4, 3, 7, 7], [4, 2, 5, 6], [2, 2, 5, 5]], [[1, 2, 8, 10], [1, 2, 6, 9], [1, 1, 4, 7]], [[4, 4, 3, 8], [4, 3, 3, 3], [4, 2, 1, 1]], [[2, 4, 9, 9], [1, 4, 7, 9], [1, 4, 5, 9]], [[4, 5, 9, 7], [2, 3, 4, 6], [2, 2, 3, 3]], [[2, 3, 7, 7], [2, 2, 4, 7], [1, 1, 4, 7]], [[2, 4, 6, 8], [1, 4, 4, 5], [1, 3, 4, 5]], [[1, 4, 10, 9], [1, 3, 9, 7], [1, 2, 8, 6]], [[5, 3, 9, 6], [4, 3, 8, 6], [4, 3, 8, 4]], [[4, 5, 3, 6], [4, 4, 2, 6], [4, 3, 2, 5]], [[1, 5, 9, 9], [1, 2, 8, 9], [1, 2, 7, 8]], [[4, 4, 8, 4], [3, 3, 7, 4], [3, 3, 5, 4]], [[3, 4, 8, 7], [3, 3, 8, 5], [3, 2, 7, 4]], [[1, 4, 9, 9], [1, 3, 8, 9], [1, 1, 7, 9]], [[1, 3, 8, 3], [1, 3, 5, 2], [1, 3, 5, 1]], [[5, 4, 9, 1], [4, 3, 9, 1], [4, 2, 9, 1]], [[5, 1, 4, 10], [4, 1, 3, 9], [4, 1, 3, 8]], [[3, 5, 4, 7], [2, 3, 3, 7], [2, 2, 3, 5]], [[3, 5, 7, 4], [3, 3, 7, 4], [2, 1, 7, 4]], [[5, 3, 3, 6], [4, 3, 2, 4], [3, 1, 2, 1]], [[4, 4, 7, 4], [4, 3, 7, 3], [4, 2, 5, 2]], [[4, 3, 7, 9], [2, 2, 5, 8], [2, 2, 4, 7]], [[4, 3, 3, 10], [4, 2, 3, 8], [4, 2, 2, 8]], [[5, 5, 8, 9], [4, 4, 4, 9], [2, 3, 2, 9]], [[5, 1, 10, 5], [5, 1, 7, 4], [5, 1, 5, 3]], [[4, 4, 9, 7], [4, 3, 7, 5], [4, 1, 5, 4]], [[2, 2, 9, 6], [2, 2, 6, 6], [2, 2, 6, 5]], [[4, 3, 5, 3], [3, 2, 4, 3], [3, 2, 4, 2]], [[5, 3, 9, 8], [3, 2, 8, 7], [1, 1, 7, 7]], [[4, 5, 8, 3], [3, 4, 7, 2], [2, 4, 5, 2]], [[2, 3, 5, 6], [1, 3, 3, 5], [1, 3, 3, 4]], [[4, 4, 4, 8], [2, 2, 4, 8], [1, 2, 3, 6]], [[5, 5, 10, 3], [3, 5, 9, 2], [3, 5, 8, 2]], [[5, 4, 8, 7], [3, 4, 6, 3], [3, 4, 5, 1]], [[2, 1, 5, 8], [1, 1, 5, 5], [1, 1, 5, 3]], [[3, 5, 4, 4], [3, 4, 3, 4], [2, 3, 3, 3]], [[1, 5, 6, 9], [1, 3, 5, 8], [1, 1, 3, 7]], [[5, 4, 9, 6], [3, 4, 6, 5], [2, 4, 5, 4]], [[2, 2, 7, 9], [1, 2, 6, 5], [1, 2, 6, 4]], [[5, 4, 8, 7], [3, 2, 7, 6], [1, 1, 4, 6]], [[4, 4, 5, 5], [3, 4, 4, 4], [3, 2, 4, 1]], [[4, 2, 9, 8], [2, 1, 8, 7], [2, 1, 8, 6]], [[2, 4, 8, 5], [2, 3, 4, 5], [2, 3, 4, 4]], [[5, 3, 7, 6], [3, 3, 4, 6], [3, 3, 2, 6]], [[3, 2, 6, 2], [3, 2, 2, 2], [3, 2, 2, 1]], [[4, 4, 7, 7], [4, 3, 5, 5], [4, 2, 4, 4]], [[2, 2, 9, 10], [2, 2, 9, 9], [2, 2, 9, 8]], [[4, 3, 5, 7], [3, 3, 5, 6], [2, 3, 5, 5]], [[3, 2, 10, 8], [3, 2, 8, 7], [3, 2, 5, 6]], [[4, 3, 9, 8], [3, 3, 6, 3], [2, 3, 1, 3]], [[2, 3, 6, 9], [1, 1, 5, 8], [1, 1, 3, 8]], [[4, 3, 7, 7], [2, 3, 7, 5], [2, 3, 3, 3]], [[2, 2, 5, 9], [2, 2, 4, 9], [2, 1, 3, 9]], [[4, 4, 10, 7], [3, 4, 4, 5], [3, 4, 2, 4]], [[4, 5, 4, 4], [3, 4, 4, 3], [2, 4, 2, 2]], [[5, 4, 5, 10], [2, 2, 5, 8], [2, 1, 3, 8]], [[4, 2, 8, 1], [2, 2, 6, 1], [1, 2, 2, 1]], [[3, 2, 5, 9], [2, 1, 3, 7], [1, 1, 3, 7]], [[5, 4, 5, 3], [5, 3, 2, 2], [5, 3, 1, 2]], [[2, 2, 9, 1], [2, 2, 8, 1], [2, 1, 7, 1]], [[2, 4, 10, 7], [1, 4, 9, 7], [1, 4, 8, 3]], [[5, 3, 8, 4], [4, 3, 7, 4], [4, 1, 6, 4]], [[3, 3, 8, 7], [2, 2, 7, 7], [2, 2, 7, 6]], [[3, 4, 10, 2], [3, 3, 6, 1], [1, 1, 6, 1]], [[3, 3, 6, 7], [2, 1, 4, 5], [2, 1, 2, 5]], [[4, 4, 9, 6], [4, 2, 7, 6], [3, 1, 7, 3]], [[3, 4, 9, 6], [3, 3, 7, 5], [2, 2, 4, 5]], [[4, 5, 9, 5], [3, 5, 8, 4], [3, 5, 8, 3]], [[3, 3, 10, 8], [3, 2, 9, 7], [3, 2, 8, 6]], [[4, 5, 8, 10], [3, 4, 7, 8], [3, 4, 4, 5]], [[2, 3, 9, 1], [2, 3, 6, 2], [2, 3, 6, 1]], [[5, 3, 7, 8], [4, 2, 6, 8], [4, 2, 6, 7]], [[3, 2, 6, 9], [2, 2, 4, 7], [1, 2, 2, 5]], [[4, 4, 7, 3], [3, 4, 6, 3], [1, 3, 4, 3]], [[5, 2, 3, 9], [4, 2, 2, 9], [4, 2, 1, 9]], [[3, 3, 8, 2], [3, 2, 7, 2], [2, 2, 4, 2]], [[4, 1, 9, 5], [4, 1, 8, 4], [4, 1, 6, 4]], [[3, 3, 6, 8], [2, 3, 4, 5], [2, 3, 2, 5]], [[4, 4, 3, 7], [2, 3, 3, 5], [2, 3, 1, 4]], [[3, 3, 10, 6], [3, 3, 9, 5], [2, 3, 8, 3]], [[4, 5, 9, 9], [2, 2, 8, 6], [1, 2, 6, 5]], [[2, 3, 6, 10], [2, 2, 5, 7], [2, 2, 4, 4]], [[2, 2, 9, 6], [2, 2, 8, 5], [2, 2, 6, 2]], [[0, 0, 0, 0]]]
